unknown
(model
; cardinality of BoundSet is 4
(declare-sort BoundSet 0)
; rep: @uc_BoundSet_0
; rep: @uc_BoundSet_1
; rep: @uc_BoundSet_2
; rep: @uc_BoundSet_3
; cardinality of UnboundSet is 1
(declare-sort UnboundSet 0)
(declare-fun groundTerm_5 () UnboundSet)
(define-fun IsLeadsTo ((BOUND_VARIABLE_484 BoundSet) (BOUND_VARIABLE_485 BoundSet)) Bool true)
(define-fun IsImprovedSoilMoisture ((BOUND_VARIABLE_488 BoundSet)) Bool true)
(define-fun IsCreating ((BOUND_VARIABLE_488 BoundSet)) Bool true)
(define-fun IsSafer ((BOUND_VARIABLE_488 BoundSet)) Bool false)
(define-fun IsMorePeaceful ((BOUND_VARIABLE_488 BoundSet)) Bool false)
)
sat
(model
; cardinality of BoundSet is 1
(declare-sort BoundSet 0)
; rep: @uc_BoundSet_0
; cardinality of UnboundSet is 1
(declare-sort UnboundSet 0)
(declare-fun groundTerm_9 () UnboundSet)
(define-fun IsLeadsTo ((BOUND_VARIABLE_541 BoundSet) (BOUND_VARIABLE_542 BoundSet)) Bool true)
(define-fun IsImprovedSoilMoisture ((BOUND_VARIABLE_545 BoundSet)) Bool true)
(define-fun IsCreating ((BOUND_VARIABLE_545 BoundSet)) Bool true)
(define-fun IsSafer ((BOUND_VARIABLE_545 BoundSet)) Bool false)
(define-fun IsMorePeaceful ((BOUND_VARIABLE_545 BoundSet)) Bool true)
)
